
Gurobi 6.5.2 (win64) logging started 07/23/16 03:13:55


Gurobi 6.5.2 (win64) logging started 07/23/16 03:13:55

Optimize a model with 20466 rows, 1358 columns and 44721 nonzeros
Coefficient statistics:
  Matrix range    [4e-06, 1e+03]
  Objective range [1e+00, 1e+00]
  Bounds range    [1e+00, 1e+00]
  RHS range       [1e+00, 1e+03]
Found heuristic solution: objective 2438.99
Presolve removed 20437 rows and 1328 columns
Presolve time: 0.01s
Presolved: 29 rows, 30 columns, 90 nonzeros
Found heuristic solution: objective 2270.0753882
Variable types: 30 continuous, 0 integer (0 binary)

Root relaxation: objective 2.066864e+02, 21 iterations, 0.00 seconds

    Nodes    |    Current Node    |     Objective Bounds      |     Work
 Expl Unexpl |  Obj  Depth IntInf | Incumbent    BestBd   Gap | It/Node Time

*    0     0               0     206.6863918  206.68639  0.00%     -    0s

Explored 0 nodes (21 simplex iterations) in 0.01 seconds
Thread count was 8 (of 8 available processors)

Optimal solution found (tolerance 1.00e-04)
Best objective 2.066863917728e+02, best bound 2.066863917728e+02, gap 0.0%

Wrote requested result file 'H2\instance22\\Results22EC_Sol4.lp'

